% demand
num_movements = 16;
loading_factor = [1300, 900, 1650, 850, 2000, 1250, 1400, 1850, 1800, 1550, 1700, 1700, 850, 1850, 1550, 2000];
pickup_time = [0, 0, 0, 0, 0, 1, 1, 2, 4, 4, 4, 7, 8, 8, 8, 8];
delivery_time = [3, 2, 4, 1, 1, 2, 3, 6, 6, 6, 7, 8, 13, 13, 13, 12];

% transporter definition
total_capacity = 7000;
num_decks = 3;
capacity = [3000, 1000, 3000];

% ways out of decks
num_ways_out = 1;
paths_out = array3d(decks, ways_out, decks, [
% ways out of deck d1
2, 3, 0, 

% ways out of deck d2
3, 0, 0, 

% ways out of deck d3
0, 0, 0,	

]);

